
Gurobi 9.5.1 (linux64) logging started Mon Jun  6 18:32:43 2022

Set parameter LogFile to value "../results/logs/log_facebook_combined_17_250_2022_06_06_18_32.log"
Set parameter LazyConstraints to value 1
Gurobi Optimizer version 9.5.1 build v9.5.1rc2 (linux64)
Thread count: 8 physical cores, 8 logical processors, using up to 8 threads
Optimize a model with 18882175 rows, 12117 columns and 56995416 nonzeros
Model fingerprint: 0x385c4e9f
Variable types: 0 continuous, 12117 integer (12117 binary)
Coefficient statistics:
  Matrix range     [1e+00, 2e+01]
  Objective range  [1e+00, 1e+00]
  Bounds range     [1e+00, 1e+00]
  RHS range        [1e+00, 2e+02]
Found heuristic solution: objective -0.0000000
Presolve removed 4008 rows and 4008 columns (presolve time = 8s) ...
Presolve removed 4163558 rows and 4797 columns (presolve time = 12s) ...
Presolve removed 18808738 rows and 4831 columns (presolve time = 22s) ...
Presolve removed 18808738 rows and 4831 columns (presolve time = 26s) ...
Presolve removed 18856508 rows and 5542 columns (presolve time = 30s) ...
Presolve removed 18856511 rows and 5542 columns (presolve time = 35s) ...
Presolve removed 18856513 rows and 5543 columns
Presolve time: 37.86s
Presolved: 25662 rows, 6574 columns, 436764 nonzeros
Variable types: 0 continuous, 6574 integer (6574 binary)

Root simplex log...

Iteration    Objective       Primal Inf.    Dual Inf.      Time
       0    2.5590000e+03   1.168750e+02   0.000000e+00     42s
    2907    2.2790865e+03   0.000000e+00   0.000000e+00     42s

Root relaxation: objective 2.279087e+03, 2907 iterations, 0.31 seconds (0.81 work units)

    Nodes    |    Current Node    |     Objective Bounds      |     Work
 Expl Unexpl |  Obj  Depth IntInf | Incumbent    BestBd   Gap | It/Node Time

     0     0 2279.08651    0   61   -0.00000 2279.08651      -     -   42s
H    0     0                    1198.0000000 2279.08651  90.2%     -   42s
H    0     0                    1223.0000000 2279.08651  86.4%     -   42s
H    0     0                    2086.0000000 2279.08651  9.26%     -   42s
H    0     0                    2090.0000000 2279.08651  9.05%     -   42s
     0     0 2269.28873    0   79 2090.00000 2269.28873  8.58%     -   42s
     0     0 2269.28873    0   79 2090.00000 2269.28873  8.58%     - 1527s
H    0     0                    2134.0000000 2269.28873  6.34%     - 1527s
H    0     0                    2135.0000000 2269.28873  6.29%     - 1527s
H    0     0                    2221.0000000 2269.28873  2.17%     - 1527s
     0     0 2233.41601    0   55 2221.00000 2233.41601  0.56%     - 1528s
     0     0 2233.41601    0   56 2221.00000 2233.41601  0.56%     - 1528s
     0     0 2233.30234    0   42 2221.00000 2233.30234  0.55%     - 1528s
H    0     0                    2224.0000000 2233.30234  0.42%     - 1528s
H    0     0                    2225.0000000 2233.30234  0.37%     - 1528s
     0     0 2233.30062    0   45 2225.00000 2233.30062  0.37%     - 1528s
     0     0 2233.27118    0   72 2225.00000 2233.27118  0.37%     - 1529s
     0     0 2233.27118    0   49 2225.00000 2233.27118  0.37%     - 1529s
H    0     0                    2227.0000000 2233.27118  0.28%     - 1530s
H    0     0                    2230.0000000 2233.27118  0.15%     - 1530s
     0     2 2233.27118    0   39 2230.00000 2233.27118  0.15%     - 1532s
    71    58 2232.05423   10   92 2230.00000 2232.10345  0.09%  71.5 1535s

Cutting planes:
  Gomory: 27
  Lift-and-project: 4
  Cover: 104
  MIR: 44
  StrongCG: 8
  GUB cover: 87
  Zero half: 11
  RLT: 17
  Lazy constraints: 4996

Explored 303 nodes (16596 simplex iterations) in 1539.78 seconds (86.04 work units)
Thread count was 8 (of 8 available processors)

Solution count 10: 2230 2227 2225 ... 1223

Optimal solution found (tolerance 0.00e+00)
Best objective 2.230000000000e+03, best bound 2.230000000000e+03, gap 0.0000%

User-callback calls 12813, time in user-callback 1484.64 sec
